(declare-rel state (Bool Bool Bool Bool Bool Bool Bool Bool Bool Bool Bool Bool Bool Bool Bool Bool Bool Bool Bool Bool Bool Bool Bool Bool Bool Bool Bool Bool Bool Bool Bool Bool Bool Bool Bool Bool Bool Bool Bool Bool Bool Bool Bool Bool Bool Bool Bool Bool Bool Bool Bool Bool Bool Bool Bool Bool Bool Bool Bool Bool Bool Bool Int))
(declare-var |_OK_| Bool)
(declare-var |_OK_.next| Bool)
(declare-var |call_PosEdge._Y_| Bool)
(declare-var |call_PosEdge._Y_.next| Bool)
(declare-var |call_PosEdge.flby| Bool)
(declare-var |call_PosEdge.flby.next| Bool)
(declare-var |call_PosEdge2._Y_| Bool)
(declare-var |call_PosEdge2._Y_.next| Bool)
(declare-var |call_PosEdge2.flby| Bool)
(declare-var |call_PosEdge2.flby.next| Bool)
(declare-var |call_PosEdge3._Y_| Bool)
(declare-var |call_PosEdge3._Y_.next| Bool)
(declare-var |call_PosEdge3.flby| Bool)
(declare-var |call_PosEdge3.flby.next| Bool)
(declare-var |call_PosEdge4._Y_| Bool)
(declare-var |call_PosEdge4._Y_.next| Bool)
(declare-var |call_PosEdge4.flby| Bool)
(declare-var |call_PosEdge4.flby.next| Bool)
(declare-var |call__main_.call_Edge._Y_| Bool)
(declare-var |call__main_.call_Edge._Y_.next| Bool)
(declare-var |call__main_.call_Edge.flby| Bool)
(declare-var |call__main_.call_Edge.flby.next| Bool)
(declare-var |call__main_.call_PosEdge._Y_| Bool)
(declare-var |call__main_.call_PosEdge._Y_.next| Bool)
(declare-var |call__main_.call_PosEdge.flby| Bool)
(declare-var |call__main_.call_PosEdge.flby.next| Bool)
(declare-var |call__main_.call_PosEdge2._Y_| Bool)
(declare-var |call__main_.call_PosEdge2._Y_.next| Bool)
(declare-var |call__main_.call_PosEdge2.flby| Bool)
(declare-var |call__main_.call_PosEdge2.flby.next| Bool)
(declare-var |call__main_.call_cc_allowed.call_MoreThanOneSec._Y_| Bool)
(declare-var |call__main_.call_cc_allowed.call_MoreThanOneSec._Y_.next| Bool)
(declare-var |call__main_.call_cc_allowed.call_MoreThanOneSec.flby| Bool)
(declare-var |call__main_.call_cc_allowed.call_MoreThanOneSec.flby.next| Bool)
(declare-var |call__main_.call_cc_allowed.call_MoreThanTwoSec._Y_| Bool)
(declare-var |call__main_.call_cc_allowed.call_MoreThanTwoSec._Y_.next| Bool)
(declare-var |call__main_.call_cc_allowed.call_MoreThanTwoSec.flby| Bool)
(declare-var |call__main_.call_cc_allowed.call_MoreThanTwoSec.flby.next| Bool)
(declare-var |call__main_.call_cc_allowed.call_MoreThanTwoSec.flby2| Bool)
(declare-var |call__main_.call_cc_allowed.call_MoreThanTwoSec.flby2.next| Bool)
(declare-var |call__main_.call_cc_allowed.ccall| Bool)
(declare-var |call__main_.call_cc_allowed.ccall.next| Bool)
(declare-var |call__main_.call_one_button_accept.call_AtLeastOnceSince.XsinceY| Bool)
(declare-var |call__main_.call_one_button_accept.call_AtLeastOnceSince.XsinceY.next| Bool)
(declare-var |call__main_.call_one_button_accept.call_AtLeastOnceSince.flby| Bool)
(declare-var |call__main_.call_one_button_accept.call_AtLeastOnceSince.flby.next| Bool)
(declare-var |call__main_.call_one_button_accept.call_AtLeastOnceSince.ite_keyword| Bool)
(declare-var |call__main_.call_one_button_accept.call_AtLeastOnceSince.ite_keyword.next| Bool)
(declare-var |call__main_.call_one_button_accept.call_PosEdge._Y_| Bool)
(declare-var |call__main_.call_one_button_accept.call_PosEdge._Y_.next| Bool)
(declare-var |call__main_.call_one_button_accept.call_PosEdge.flby| Bool)
(declare-var |call__main_.call_one_button_accept.call_PosEdge.flby.next| Bool)
(declare-var |call__main_.call_one_button_accept.call_one_button.ob| Bool)
(declare-var |call__main_.call_one_button_accept.call_one_button.ob.next| Bool)
(declare-var |call__main_.call_one_button_accept.call_prev_no_button.flby| Bool)
(declare-var |call__main_.call_one_button_accept.call_prev_no_button.flby.next| Bool)
(declare-var |call__main_.call_one_button_accept.call_prev_no_button.pnb| Bool)
(declare-var |call__main_.call_one_button_accept.call_prev_no_button.pnb.next| Bool)
(declare-var |call__main_.call_one_button_accept.ite_keyword| Bool)
(declare-var |call__main_.call_one_button_accept.ite_keyword.next| Bool)
(declare-var |call__main_.call_one_button_accept.ite_keyword2| Bool)
(declare-var |call__main_.call_one_button_accept.ite_keyword2.next| Bool)
(declare-var |call__main_.call_one_button_accept.ob| Bool)
(declare-var |call__main_.call_one_button_accept.ob.next| Bool)
(declare-var |call__main_.call_one_button_accept.oba| Bool)
(declare-var |call__main_.call_one_button_accept.oba.next| Bool)
(declare-var |call__main_.call_one_button_accept.pnb| Bool)
(declare-var |call__main_.call_one_button_accept.pnb.next| Bool)
(declare-var |call__main_.cca| Bool)
(declare-var |call__main_.cca.next| Bool)
(declare-var |call__main_.ccall| Bool)
(declare-var |call__main_.ccall.next| Bool)
(declare-var |call__main_.ccont| Bool)
(declare-var |call__main_.ccont.next| Bool)
(declare-var |call__main_.flby| Bool)
(declare-var |call__main_.flby.next| Bool)
(declare-var |call__main_.flby2| Bool)
(declare-var |call__main_.flby2.next| Bool)
(declare-var |call__main_.ite_keyword| Bool)
(declare-var |call__main_.ite_keyword.next| Bool)
(declare-var |call__main_.ite_keyword2| Bool)
(declare-var |call__main_.ite_keyword2.next| Bool)
(declare-var |call__main_.ite_keyword3| Bool)
(declare-var |call__main_.ite_keyword3.next| Bool)
(declare-var |call__main_.ite_keyword4| Bool)
(declare-var |call__main_.ite_keyword4.next| Bool)
(declare-var |call__main_.param| Bool)
(declare-var |call__main_.param.next| Bool)
(declare-var |cca| Bool)
(declare-var |cca.next| Bool)
(declare-var |ccont| Bool)
(declare-var |ccont.next| Bool)
(declare-var |env| Bool)
(declare-var |env.next| Bool)
(declare-var |flby| Bool)
(declare-var |flby.next| Bool)
(declare-var |ite_keyword| Bool)
(declare-var |ite_keyword.next| Bool)
(declare-var |param_accok| Bool)
(declare-var |param_accok.next| Bool)
(declare-var |param_battok| Bool)
(declare-var |param_battok.next| Bool)
(declare-var |param_bpa| Bool)
(declare-var |param_bpa.next| Bool)
(declare-var |param_cccanc| Bool)
(declare-var |param_cccanc.next| Bool)
(declare-var |param_ccd| Bool)
(declare-var |param_ccd.next| Bool)
(declare-var |param_cconoff| Bool)
(declare-var |param_cconoff.next| Bool)
(declare-var |param_ccr| Bool)
(declare-var |param_ccr.next| Bool)
(declare-var |param_ccsetd| Bool)
(declare-var |param_ccsetd.next| Bool)
(declare-var |param_ccseti| Bool)
(declare-var |param_ccseti.next| Bool)
(declare-var |param_gearok| Bool)
(declare-var |param_gearok.next| Bool)
(declare-var |param_igsw| Bool)
(declare-var |param_igsw.next| Bool)
(declare-var |param_qfok| Bool)
(declare-var |param_qfok.next| Bool)
(declare-var |param_sdok| Bool)
(declare-var |param_sdok.next| Bool)
(declare-var |param_vs| Int)
(declare-var |param_vs.next| Int)

(define-fun .init () Bool
(let ((.def_189 (not call__main_.ite_keyword3)))
(let ((.def_190 (or call__main_.ccall .def_189)))
(let ((.def_187 (not param_igsw)))
(let ((.def_188 (= flby .def_187)))
(let ((.def_191 (and .def_188 .def_190)))
(let ((.def_185 (not call__main_.flby)))
(let ((.def_192 (and .def_185 .def_191)))
(let ((.def_184 (not call__main_.flby2)))
(let ((.def_193 (and .def_184 .def_192)))
(let ((.def_183 (not call__main_.call_Edge.flby)))
(let ((.def_194 (and .def_183 .def_193)))
(let ((.def_182 (not call__main_.call_PosEdge.flby)))
(let ((.def_195 (and .def_182 .def_194)))
(let ((.def_181 (not call__main_.call_PosEdge2.flby)))
(let ((.def_196 (and .def_181 .def_195)))
(let ((.def_180 (not call__main_.call_cc_allowed.call_MoreThanOneSec.flby)))
(let ((.def_197 (and .def_180 .def_196)))
(let ((.def_179 (not call__main_.call_cc_allowed.call_MoreThanTwoSec.flby)))
(let ((.def_198 (and .def_179 .def_197)))
(let ((.def_177 (not call__main_.call_cc_allowed.call_MoreThanTwoSec.flby2)))
(let ((.def_199 (and .def_177 .def_198)))
(let ((.def_200 (and call__main_.call_one_button_accept.call_prev_no_button.flby .def_199)))
(let ((.def_176 (not call__main_.call_one_button_accept.call_PosEdge.flby)))
(let ((.def_201 (and .def_176 .def_200)))
(let ((.def_202 (and call__main_.call_one_button_accept.call_AtLeastOnceSince.flby .def_201)))
(let ((.def_175 (not call_PosEdge.flby)))
(let ((.def_203 (and .def_175 .def_202)))
(let ((.def_174 (not call_PosEdge2.flby)))
(let ((.def_204 (and .def_174 .def_203)))
(let ((.def_173 (not call_PosEdge3.flby)))
(let ((.def_205 (and .def_173 .def_204)))
(let ((.def_172 (not call_PosEdge4.flby)))
(let ((.def_206 (and .def_172 .def_205)))
(let ((.def_145 (= ite_keyword _OK_)))
(let ((.def_143 (= call__main_.ccont ccont)))
(let ((.def_146 (and .def_143 .def_145)))
(let ((.def_141 (= call__main_.cca cca)))
(let ((.def_147 (and .def_141 .def_146)))
(let ((.def_139 (= flby env)))
(let ((.def_148 (and .def_139 .def_147)))
(let ((.def_135 (or call_PosEdge._Y_ ite_keyword)))
(let ((.def_130 (or call_PosEdge3._Y_ call_PosEdge2._Y_)))
(let ((.def_131 (or call_PosEdge4._Y_ .def_130)))
(let ((.def_133 (= .def_131 ite_keyword)))
(let ((.def_129 (not call_PosEdge._Y_)))
(let ((.def_134 (or .def_129 .def_133)))
(let ((.def_136 (and .def_134 .def_135)))
(let ((.def_149 (and .def_136 .def_148)))
(let ((.def_126 (= call__main_.call_one_button_accept.call_AtLeastOnceSince.XsinceY call__main_.call_one_button_accept.ite_keyword)))
(let ((.def_36 (not param_ccr)))
(let ((.def_127 (or .def_36 .def_126)))
(let ((.def_125 (or param_ccr call__main_.call_one_button_accept.ite_keyword)))
(let ((.def_128 (and .def_125 .def_127)))
(let ((.def_150 (and .def_128 .def_149)))
(let ((.def_124 (= call__main_.ccont call__main_.flby)))
(let ((.def_151 (and .def_124 .def_150)))
(let ((.def_122 (= call__main_.flby2 call__main_.cca)))
(let ((.def_152 (and .def_122 .def_151)))
(let ((.def_116 (= call__main_.ite_keyword4 call__main_.ite_keyword3)))
(let ((.def_111 (and call__main_.call_one_button_accept.oba call__main_.ccall)))
(let ((.def_117 (or .def_111 .def_116)))
(let ((.def_112 (not .def_111)))
(let ((.def_114 (or .def_112 call__main_.ite_keyword4)))
(let ((.def_118 (and .def_114 .def_117)))
(let ((.def_110 (= call__main_.call_cc_allowed.ccall call__main_.ccall)))
(let ((.def_119 (and .def_110 .def_118)))
(let ((.def_153 (and .def_119 .def_152)))
(let ((.def_107 (= call__main_.call_one_button_accept.call_AtLeastOnceSince.ite_keyword call__main_.param)))
(let ((.def_105 (not call__main_.call_one_button_accept.call_PosEdge._Y_)))
(let ((.def_108 (or .def_105 .def_107)))
(let ((.def_154 (and .def_108 .def_153)))
(let ((.def_104 (= call__main_.call_Edge.flby call__main_.call_Edge._Y_)))
(let ((.def_155 (and .def_104 .def_154)))
(let ((.def_101 (= call__main_.call_PosEdge.flby call__main_.call_PosEdge._Y_)))
(let ((.def_156 (and .def_101 .def_155)))
(let ((.def_98 (= call__main_.call_PosEdge2.flby call__main_.call_PosEdge2._Y_)))
(let ((.def_157 (and .def_98 .def_156)))
(let ((.def_80 (not param_bpa)))
(let ((.def_82 (and .def_80 call__main_.ccont)))
(let ((.def_84 (and .def_82 param_battok)))
(let ((.def_86 (and .def_84 param_gearok)))
(let ((.def_88 (and .def_86 param_qfok)))
(let ((.def_89 (and call__main_.call_cc_allowed.call_MoreThanOneSec._Y_ .def_88)))
(let ((.def_78 (<= 35 param_vs)))
(let ((.def_90 (and .def_78 .def_89)))
(let ((.def_76 (<= param_vs 200)))
(let ((.def_91 (and .def_76 .def_90)))
(let ((.def_92 (and call__main_.call_cc_allowed.call_MoreThanTwoSec._Y_ .def_91)))
(let ((.def_73 (not param_cccanc)))
(let ((.def_93 (and .def_73 .def_92)))
(let ((.def_95 (= .def_93 call__main_.call_cc_allowed.ccall)))
(let ((.def_158 (and .def_95 .def_157)))
(let ((.def_71 (= call__main_.call_cc_allowed.call_MoreThanOneSec.flby call__main_.call_cc_allowed.call_MoreThanOneSec._Y_)))
(let ((.def_159 (and .def_71 .def_158)))
(let ((.def_68 (= call__main_.call_cc_allowed.call_MoreThanTwoSec.flby2 call__main_.call_cc_allowed.call_MoreThanTwoSec._Y_)))
(let ((.def_160 (and .def_68 .def_159)))
(let ((.def_65 (= call__main_.call_one_button_accept.ite_keyword2 call__main_.call_one_button_accept.oba)))
(let ((.def_161 (and .def_65 .def_160)))
(let ((.def_60 (not call__main_.call_one_button_accept.ite_keyword2)))
(let ((.def_57 (and call__main_.call_one_button_accept.pnb call__main_.call_one_button_accept.ob)))
(let ((.def_61 (or .def_57 .def_60)))
(let ((.def_58 (not .def_57)))
(let ((.def_56 (= call__main_.call_one_button_accept.ite_keyword call__main_.call_one_button_accept.ite_keyword2)))
(let ((.def_59 (or .def_56 .def_58)))
(let ((.def_62 (and .def_59 .def_61)))
(let ((.def_53 (= call__main_.call_one_button_accept.call_one_button.ob call__main_.call_one_button_accept.ob)))
(let ((.def_63 (and .def_53 .def_62)))
(let ((.def_162 (and .def_63 .def_161)))
(let ((.def_51 (= call__main_.call_one_button_accept.call_prev_no_button.pnb call__main_.call_one_button_accept.pnb)))
(let ((.def_163 (and .def_51 .def_162)))
(let ((.def_49 (= call__main_.call_one_button_accept.call_prev_no_button.flby call__main_.call_one_button_accept.call_prev_no_button.pnb)))
(let ((.def_164 (and .def_49 .def_163)))
(let ((.def_38 (not param_ccseti)))
(let ((.def_32 (not param_ccsetd)))
(let ((.def_42 (and .def_32 .def_38)))
(let ((.def_43 (and param_ccr .def_42)))
(let ((.def_39 (and param_ccsetd .def_38)))
(let ((.def_40 (and .def_36 .def_39)))
(let ((.def_34 (and .def_32 param_ccseti)))
(let ((.def_37 (and .def_34 .def_36)))
(let ((.def_41 (or .def_37 .def_40)))
(let ((.def_44 (or .def_41 .def_43)))
(let ((.def_46 (= .def_44 call__main_.call_one_button_accept.call_one_button.ob)))
(let ((.def_165 (and .def_46 .def_164)))
(let ((.def_28 (= call__main_.call_one_button_accept.call_AtLeastOnceSince.ite_keyword call__main_.call_one_button_accept.call_AtLeastOnceSince.flby)))
(let ((.def_29 (or call__main_.call_one_button_accept.call_PosEdge._Y_ .def_28)))
(let ((.def_26 (= call__main_.call_one_button_accept.call_PosEdge.flby call__main_.call_one_button_accept.call_PosEdge._Y_)))
(let ((.def_30 (and .def_26 .def_29)))
(let ((.def_166 (and .def_30 .def_165)))
(let ((.def_23 (= call__main_.call_one_button_accept.call_AtLeastOnceSince.XsinceY call__main_.call_one_button_accept.call_AtLeastOnceSince.ite_keyword)))
(let ((.def_167 (and .def_23 .def_166)))
(let ((.def_20 (= call_PosEdge.flby call_PosEdge._Y_)))
(let ((.def_168 (and .def_20 .def_167)))
(let ((.def_17 (= call_PosEdge2.flby call_PosEdge2._Y_)))
(let ((.def_169 (and .def_17 .def_168)))
(let ((.def_14 (= call_PosEdge3.flby call_PosEdge3._Y_)))
(let ((.def_170 (and .def_14 .def_169)))
(let ((.def_11 (= call_PosEdge4.flby call_PosEdge4._Y_)))
(let ((.def_171 (and .def_11 .def_170)))
(let ((.def_207 (and .def_171 .def_206)))
.def_207)))))))))))))))))))))))))))))))))))))))))))))))))))))))))))))))))))))))))))))))))))))))))))))))))))))))))))))))))))))))))))))))))))))))))))))

(define-fun .trans () Bool
(let ((.def_432 (= call__main_.ite_keyword2.next call__main_.ite_keyword.next)))
(let ((.def_428 (or call__main_.call_Edge._Y_.next param_ccd.next)))
(let ((.def_426 (and call__main_.ccont call__main_.call_PosEdge._Y_.next)))
(let ((.def_429 (or .def_426 .def_428)))
(let ((.def_433 (or .def_429 .def_432)))
(let ((.def_430 (not .def_429)))
(let ((.def_425 (not call__main_.ite_keyword2.next)))
(let ((.def_431 (or .def_425 .def_430)))
(let ((.def_434 (and .def_431 .def_433)))
(let ((.def_435 (and flby.next .def_434)))
(let ((.def_422 (= call__main_.ccont call__main_.ite_keyword.next)))
(let ((.def_381 (not call__main_.ccont)))
(let ((.def_418 (and call__main_.call_PosEdge2._Y_.next .def_381)))
(let ((.def_423 (or .def_418 .def_422)))
(let ((.def_419 (not .def_418)))
(let ((.def_421 (or .def_419 call__main_.ite_keyword.next)))
(let ((.def_424 (and .def_421 .def_423)))
(let ((.def_436 (and .def_424 .def_435)))
(let ((.def_416 (= call__main_.cca call__main_.ite_keyword3.next)))
(let ((.def_415 (not call__main_.ccall.next)))
(let ((.def_417 (or .def_415 .def_416)))
(let ((.def_437 (and .def_417 .def_436)))
(let ((.def_413 (not call__main_.ite_keyword3.next)))
(let ((.def_414 (or call__main_.ccall.next .def_413)))
(let ((.def_438 (and .def_414 .def_437)))
(let ((.def_412 (= call__main_.flby.next call__main_.ite_keyword2.next)))
(let ((.def_439 (and .def_412 .def_438)))
(let ((.def_410 (= call__main_.cca call__main_.param.next)))
(let ((.def_440 (and .def_410 .def_439)))
(let ((.def_409 (= call__main_.ite_keyword4.next call__main_.flby2.next)))
(let ((.def_441 (and .def_409 .def_440)))
(let ((.def_187 (not param_igsw)))
(let ((.def_405 (and .def_187 param_igsw.next)))
(let ((.def_404 (not param_igsw.next)))
(let ((.def_406 (and .def_404 .def_405)))
(let ((.def_407 (and param_igsw .def_406)))
(let ((.def_408 (= call__main_.call_Edge.flby.next .def_407)))
(let ((.def_442 (and .def_408 .def_441)))
(let ((.def_398 (not param_cconoff)))
(let ((.def_400 (and .def_398 param_cconoff.next)))
(let ((.def_402 (= call__main_.call_PosEdge.flby.next .def_400)))
(let ((.def_443 (and .def_402 .def_442)))
(let ((.def_401 (= call__main_.call_PosEdge2.flby.next .def_400)))
(let ((.def_444 (and .def_401 .def_443)))
(let ((.def_395 (and param_sdok.next param_sdok)))
(let ((.def_396 (= call__main_.call_cc_allowed.call_MoreThanOneSec.flby.next .def_395)))
(let ((.def_445 (and .def_396 .def_444)))
(let ((.def_390 (and param_accok.next param_accok)))
(let ((.def_392 (= .def_390 call__main_.call_cc_allowed.call_MoreThanTwoSec.flby.next)))
(let ((.def_446 (and .def_392 .def_445)))
(let ((.def_387 (and call__main_.call_cc_allowed.call_MoreThanTwoSec.flby param_accok.next)))
(let ((.def_388 (= call__main_.call_cc_allowed.call_MoreThanTwoSec.flby2.next .def_387)))
(let ((.def_447 (and .def_388 .def_446)))
(let ((.def_38 (not param_ccseti)))
(let ((.def_32 (not param_ccsetd)))
(let ((.def_42 (and .def_32 .def_38)))
(let ((.def_36 (not param_ccr)))
(let ((.def_384 (and .def_36 .def_42)))
(let ((.def_385 (= call__main_.call_one_button_accept.call_prev_no_button.flby.next .def_384)))
(let ((.def_448 (and .def_385 .def_447)))
(let ((.def_382 (and call__main_.ccont.next .def_381)))
(let ((.def_383 (= call__main_.call_one_button_accept.call_PosEdge.flby.next .def_382)))
(let ((.def_449 (and .def_383 .def_448)))
(let ((.def_379 (or call__main_.call_one_button_accept.call_AtLeastOnceSince.XsinceY call__main_.param.next)))
(let ((.def_380 (= call__main_.call_one_button_accept.call_AtLeastOnceSince.flby.next .def_379)))
(let ((.def_450 (and .def_380 .def_449)))
(let ((.def_376 (not cca)))
(let ((.def_377 (and cca.next .def_376)))
(let ((.def_378 (= call_PosEdge.flby.next .def_377)))
(let ((.def_451 (and .def_378 .def_450)))
(let ((.def_374 (and .def_38 param_ccseti.next)))
(let ((.def_375 (= call_PosEdge2.flby.next .def_374)))
(let ((.def_452 (and .def_375 .def_451)))
(let ((.def_372 (and .def_32 param_ccsetd.next)))
(let ((.def_373 (= call_PosEdge3.flby.next .def_372)))
(let ((.def_453 (and .def_373 .def_452)))
(let ((.def_370 (and .def_36 param_ccr.next)))
(let ((.def_371 (= call_PosEdge4.flby.next .def_370)))
(let ((.def_454 (and .def_371 .def_453)))
(let ((.def_342 (= ite_keyword.next _OK_.next)))
(let ((.def_340 (= call__main_.ccont.next ccont.next)))
(let ((.def_343 (and .def_340 .def_342)))
(let ((.def_338 (= call__main_.cca.next cca.next)))
(let ((.def_344 (and .def_338 .def_343)))
(let ((.def_336 (= flby.next env.next)))
(let ((.def_345 (and .def_336 .def_344)))
(let ((.def_332 (or call_PosEdge._Y_.next ite_keyword.next)))
(let ((.def_327 (or call_PosEdge3._Y_.next call_PosEdge2._Y_.next)))
(let ((.def_328 (or call_PosEdge4._Y_.next .def_327)))
(let ((.def_330 (= .def_328 ite_keyword.next)))
(let ((.def_326 (not call_PosEdge._Y_.next)))
(let ((.def_331 (or .def_326 .def_330)))
(let ((.def_333 (and .def_331 .def_332)))
(let ((.def_346 (and .def_333 .def_345)))
(let ((.def_323 (= call__main_.call_one_button_accept.call_AtLeastOnceSince.XsinceY.next call__main_.call_one_button_accept.ite_keyword.next)))
(let ((.def_235 (not param_ccr.next)))
(let ((.def_324 (or .def_235 .def_323)))
(let ((.def_322 (or param_ccr.next call__main_.call_one_button_accept.ite_keyword.next)))
(let ((.def_325 (and .def_322 .def_324)))
(let ((.def_347 (and .def_325 .def_346)))
(let ((.def_321 (= call__main_.ccont.next call__main_.flby.next)))
(let ((.def_348 (and .def_321 .def_347)))
(let ((.def_319 (= call__main_.flby2.next call__main_.cca.next)))
(let ((.def_349 (and .def_319 .def_348)))
(let ((.def_313 (= call__main_.ite_keyword4.next call__main_.ite_keyword3.next)))
(let ((.def_308 (and call__main_.call_one_button_accept.oba.next call__main_.ccall.next)))
(let ((.def_314 (or .def_308 .def_313)))
(let ((.def_309 (not .def_308)))
(let ((.def_311 (or .def_309 call__main_.ite_keyword4.next)))
(let ((.def_315 (and .def_311 .def_314)))
(let ((.def_307 (= call__main_.call_cc_allowed.ccall.next call__main_.ccall.next)))
(let ((.def_316 (and .def_307 .def_315)))
(let ((.def_350 (and .def_316 .def_349)))
(let ((.def_304 (= call__main_.call_one_button_accept.call_AtLeastOnceSince.ite_keyword.next call__main_.param.next)))
(let ((.def_302 (not call__main_.call_one_button_accept.call_PosEdge._Y_.next)))
(let ((.def_305 (or .def_302 .def_304)))
(let ((.def_351 (and .def_305 .def_350)))
(let ((.def_301 (= call__main_.call_Edge._Y_.next call__main_.call_Edge.flby.next)))
(let ((.def_352 (and .def_301 .def_351)))
(let ((.def_298 (= call__main_.call_PosEdge._Y_.next call__main_.call_PosEdge.flby.next)))
(let ((.def_353 (and .def_298 .def_352)))
(let ((.def_295 (= call__main_.call_PosEdge2._Y_.next call__main_.call_PosEdge2.flby.next)))
(let ((.def_354 (and .def_295 .def_353)))
(let ((.def_277 (not param_bpa.next)))
(let ((.def_279 (and .def_277 call__main_.ccont.next)))
(let ((.def_281 (and .def_279 param_battok.next)))
(let ((.def_283 (and .def_281 param_gearok.next)))
(let ((.def_285 (and .def_283 param_qfok.next)))
(let ((.def_286 (and call__main_.call_cc_allowed.call_MoreThanOneSec._Y_.next .def_285)))
(let ((.def_275 (<= 35 param_vs.next)))
(let ((.def_287 (and .def_275 .def_286)))
(let ((.def_274 (<= param_vs.next 200)))
(let ((.def_288 (and .def_274 .def_287)))
(let ((.def_289 (and call__main_.call_cc_allowed.call_MoreThanTwoSec._Y_.next .def_288)))
(let ((.def_272 (not param_cccanc.next)))
(let ((.def_290 (and .def_272 .def_289)))
(let ((.def_292 (= .def_290 call__main_.call_cc_allowed.ccall.next)))
(let ((.def_355 (and .def_292 .def_354)))
(let ((.def_270 (= call__main_.call_cc_allowed.call_MoreThanOneSec.flby.next call__main_.call_cc_allowed.call_MoreThanOneSec._Y_.next)))
(let ((.def_356 (and .def_270 .def_355)))
(let ((.def_267 (= call__main_.call_cc_allowed.call_MoreThanTwoSec.flby2.next call__main_.call_cc_allowed.call_MoreThanTwoSec._Y_.next)))
(let ((.def_357 (and .def_267 .def_356)))
(let ((.def_264 (= call__main_.call_one_button_accept.ite_keyword2.next call__main_.call_one_button_accept.oba.next)))
(let ((.def_358 (and .def_264 .def_357)))
(let ((.def_259 (not call__main_.call_one_button_accept.ite_keyword2.next)))
(let ((.def_256 (and call__main_.call_one_button_accept.pnb.next call__main_.call_one_button_accept.ob.next)))
(let ((.def_260 (or .def_256 .def_259)))
(let ((.def_257 (not .def_256)))
(let ((.def_255 (= call__main_.call_one_button_accept.ite_keyword.next call__main_.call_one_button_accept.ite_keyword2.next)))
(let ((.def_258 (or .def_255 .def_257)))
(let ((.def_261 (and .def_258 .def_260)))
(let ((.def_252 (= call__main_.call_one_button_accept.call_one_button.ob.next call__main_.call_one_button_accept.ob.next)))
(let ((.def_262 (and .def_252 .def_261)))
(let ((.def_359 (and .def_262 .def_358)))
(let ((.def_250 (= call__main_.call_one_button_accept.call_prev_no_button.pnb.next call__main_.call_one_button_accept.pnb.next)))
(let ((.def_360 (and .def_250 .def_359)))
(let ((.def_248 (= call__main_.call_one_button_accept.call_prev_no_button.flby.next call__main_.call_one_button_accept.call_prev_no_button.pnb.next)))
(let ((.def_361 (and .def_248 .def_360)))
(let ((.def_237 (not param_ccseti.next)))
(let ((.def_231 (not param_ccsetd.next)))
(let ((.def_241 (and .def_231 .def_237)))
(let ((.def_242 (and param_ccr.next .def_241)))
(let ((.def_238 (and param_ccsetd.next .def_237)))
(let ((.def_239 (and .def_235 .def_238)))
(let ((.def_233 (and .def_231 param_ccseti.next)))
(let ((.def_236 (and .def_233 .def_235)))
(let ((.def_240 (or .def_236 .def_239)))
(let ((.def_243 (or .def_240 .def_242)))
(let ((.def_245 (= .def_243 call__main_.call_one_button_accept.call_one_button.ob.next)))
(let ((.def_362 (and .def_245 .def_361)))
(let ((.def_227 (= call__main_.call_one_button_accept.call_AtLeastOnceSince.ite_keyword.next call__main_.call_one_button_accept.call_AtLeastOnceSince.flby.next)))
(let ((.def_228 (or call__main_.call_one_button_accept.call_PosEdge._Y_.next .def_227)))
(let ((.def_225 (= call__main_.call_one_button_accept.call_PosEdge.flby.next call__main_.call_one_button_accept.call_PosEdge._Y_.next)))
(let ((.def_229 (and .def_225 .def_228)))
(let ((.def_363 (and .def_229 .def_362)))
(let ((.def_222 (= call__main_.call_one_button_accept.call_AtLeastOnceSince.XsinceY.next call__main_.call_one_button_accept.call_AtLeastOnceSince.ite_keyword.next)))
(let ((.def_364 (and .def_222 .def_363)))
(let ((.def_219 (= call_PosEdge.flby.next call_PosEdge._Y_.next)))
(let ((.def_365 (and .def_219 .def_364)))
(let ((.def_216 (= call_PosEdge2.flby.next call_PosEdge2._Y_.next)))
(let ((.def_366 (and .def_216 .def_365)))
(let ((.def_213 (= call_PosEdge3.flby.next call_PosEdge3._Y_.next)))
(let ((.def_367 (and .def_213 .def_366)))
(let ((.def_210 (= call_PosEdge4.flby.next call_PosEdge4._Y_.next)))
(let ((.def_368 (and .def_210 .def_367)))
(let ((.def_145 (= ite_keyword _OK_)))
(let ((.def_143 (= call__main_.ccont ccont)))
(let ((.def_146 (and .def_143 .def_145)))
(let ((.def_141 (= call__main_.cca cca)))
(let ((.def_147 (and .def_141 .def_146)))
(let ((.def_139 (= flby env)))
(let ((.def_148 (and .def_139 .def_147)))
(let ((.def_135 (or call_PosEdge._Y_ ite_keyword)))
(let ((.def_130 (or call_PosEdge3._Y_ call_PosEdge2._Y_)))
(let ((.def_131 (or call_PosEdge4._Y_ .def_130)))
(let ((.def_133 (= .def_131 ite_keyword)))
(let ((.def_129 (not call_PosEdge._Y_)))
(let ((.def_134 (or .def_129 .def_133)))
(let ((.def_136 (and .def_134 .def_135)))
(let ((.def_149 (and .def_136 .def_148)))
(let ((.def_126 (= call__main_.call_one_button_accept.call_AtLeastOnceSince.XsinceY call__main_.call_one_button_accept.ite_keyword)))
(let ((.def_127 (or .def_36 .def_126)))
(let ((.def_125 (or param_ccr call__main_.call_one_button_accept.ite_keyword)))
(let ((.def_128 (and .def_125 .def_127)))
(let ((.def_150 (and .def_128 .def_149)))
(let ((.def_124 (= call__main_.ccont call__main_.flby)))
(let ((.def_151 (and .def_124 .def_150)))
(let ((.def_122 (= call__main_.flby2 call__main_.cca)))
(let ((.def_152 (and .def_122 .def_151)))
(let ((.def_116 (= call__main_.ite_keyword4 call__main_.ite_keyword3)))
(let ((.def_111 (and call__main_.call_one_button_accept.oba call__main_.ccall)))
(let ((.def_117 (or .def_111 .def_116)))
(let ((.def_112 (not .def_111)))
(let ((.def_114 (or .def_112 call__main_.ite_keyword4)))
(let ((.def_118 (and .def_114 .def_117)))
(let ((.def_110 (= call__main_.call_cc_allowed.ccall call__main_.ccall)))
(let ((.def_119 (and .def_110 .def_118)))
(let ((.def_153 (and .def_119 .def_152)))
(let ((.def_107 (= call__main_.call_one_button_accept.call_AtLeastOnceSince.ite_keyword call__main_.param)))
(let ((.def_105 (not call__main_.call_one_button_accept.call_PosEdge._Y_)))
(let ((.def_108 (or .def_105 .def_107)))
(let ((.def_154 (and .def_108 .def_153)))
(let ((.def_104 (= call__main_.call_Edge.flby call__main_.call_Edge._Y_)))
(let ((.def_155 (and .def_104 .def_154)))
(let ((.def_101 (= call__main_.call_PosEdge.flby call__main_.call_PosEdge._Y_)))
(let ((.def_156 (and .def_101 .def_155)))
(let ((.def_98 (= call__main_.call_PosEdge2.flby call__main_.call_PosEdge2._Y_)))
(let ((.def_157 (and .def_98 .def_156)))
(let ((.def_80 (not param_bpa)))
(let ((.def_82 (and .def_80 call__main_.ccont)))
(let ((.def_84 (and .def_82 param_battok)))
(let ((.def_86 (and .def_84 param_gearok)))
(let ((.def_88 (and .def_86 param_qfok)))
(let ((.def_89 (and call__main_.call_cc_allowed.call_MoreThanOneSec._Y_ .def_88)))
(let ((.def_78 (<= 35 param_vs)))
(let ((.def_90 (and .def_78 .def_89)))
(let ((.def_76 (<= param_vs 200)))
(let ((.def_91 (and .def_76 .def_90)))
(let ((.def_92 (and call__main_.call_cc_allowed.call_MoreThanTwoSec._Y_ .def_91)))
(let ((.def_73 (not param_cccanc)))
(let ((.def_93 (and .def_73 .def_92)))
(let ((.def_95 (= .def_93 call__main_.call_cc_allowed.ccall)))
(let ((.def_158 (and .def_95 .def_157)))
(let ((.def_71 (= call__main_.call_cc_allowed.call_MoreThanOneSec.flby call__main_.call_cc_allowed.call_MoreThanOneSec._Y_)))
(let ((.def_159 (and .def_71 .def_158)))
(let ((.def_68 (= call__main_.call_cc_allowed.call_MoreThanTwoSec.flby2 call__main_.call_cc_allowed.call_MoreThanTwoSec._Y_)))
(let ((.def_160 (and .def_68 .def_159)))
(let ((.def_65 (= call__main_.call_one_button_accept.ite_keyword2 call__main_.call_one_button_accept.oba)))
(let ((.def_161 (and .def_65 .def_160)))
(let ((.def_60 (not call__main_.call_one_button_accept.ite_keyword2)))
(let ((.def_57 (and call__main_.call_one_button_accept.pnb call__main_.call_one_button_accept.ob)))
(let ((.def_61 (or .def_57 .def_60)))
(let ((.def_58 (not .def_57)))
(let ((.def_56 (= call__main_.call_one_button_accept.ite_keyword call__main_.call_one_button_accept.ite_keyword2)))
(let ((.def_59 (or .def_56 .def_58)))
(let ((.def_62 (and .def_59 .def_61)))
(let ((.def_53 (= call__main_.call_one_button_accept.call_one_button.ob call__main_.call_one_button_accept.ob)))
(let ((.def_63 (and .def_53 .def_62)))
(let ((.def_162 (and .def_63 .def_161)))
(let ((.def_51 (= call__main_.call_one_button_accept.call_prev_no_button.pnb call__main_.call_one_button_accept.pnb)))
(let ((.def_163 (and .def_51 .def_162)))
(let ((.def_49 (= call__main_.call_one_button_accept.call_prev_no_button.flby call__main_.call_one_button_accept.call_prev_no_button.pnb)))
(let ((.def_164 (and .def_49 .def_163)))
(let ((.def_43 (and param_ccr .def_42)))
(let ((.def_39 (and param_ccsetd .def_38)))
(let ((.def_40 (and .def_36 .def_39)))
(let ((.def_34 (and .def_32 param_ccseti)))
(let ((.def_37 (and .def_34 .def_36)))
(let ((.def_41 (or .def_37 .def_40)))
(let ((.def_44 (or .def_41 .def_43)))
(let ((.def_46 (= .def_44 call__main_.call_one_button_accept.call_one_button.ob)))
(let ((.def_165 (and .def_46 .def_164)))
(let ((.def_28 (= call__main_.call_one_button_accept.call_AtLeastOnceSince.ite_keyword call__main_.call_one_button_accept.call_AtLeastOnceSince.flby)))
(let ((.def_29 (or call__main_.call_one_button_accept.call_PosEdge._Y_ .def_28)))
(let ((.def_26 (= call__main_.call_one_button_accept.call_PosEdge.flby call__main_.call_one_button_accept.call_PosEdge._Y_)))
(let ((.def_30 (and .def_26 .def_29)))
(let ((.def_166 (and .def_30 .def_165)))
(let ((.def_23 (= call__main_.call_one_button_accept.call_AtLeastOnceSince.XsinceY call__main_.call_one_button_accept.call_AtLeastOnceSince.ite_keyword)))
(let ((.def_167 (and .def_23 .def_166)))
(let ((.def_20 (= call_PosEdge.flby call_PosEdge._Y_)))
(let ((.def_168 (and .def_20 .def_167)))
(let ((.def_17 (= call_PosEdge2.flby call_PosEdge2._Y_)))
(let ((.def_169 (and .def_17 .def_168)))
(let ((.def_14 (= call_PosEdge3.flby call_PosEdge3._Y_)))
(let ((.def_170 (and .def_14 .def_169)))
(let ((.def_11 (= call_PosEdge4.flby call_PosEdge4._Y_)))
(let ((.def_171 (and .def_11 .def_170)))
(let ((.def_369 (and .def_171 .def_368)))
(let ((.def_455 (and .def_369 .def_454)))
.def_455))))))))))))))))))))))))))))))))))))))))))))))))))))))))))))))))))))))))))))))))))))))))))))))))))))))))))))))))))))))))))))))))))))))))))))))))))))))))))))))))))))))))))))))))))))))))))))))))))))))))))))))))))))))))))))))))))))))))))))))))))))))))))))))))))))))))))))))))))))))))))))))))))

(define-fun .property () Bool
_OK_)

(rule (=> .init (state |_OK_| |call_PosEdge._Y_| |call_PosEdge.flby| |call_PosEdge2._Y_| |call_PosEdge2.flby| |call_PosEdge3._Y_| |call_PosEdge3.flby| |call_PosEdge4._Y_| |call_PosEdge4.flby| |call__main_.call_Edge._Y_| |call__main_.call_Edge.flby| |call__main_.call_PosEdge._Y_| |call__main_.call_PosEdge.flby| |call__main_.call_PosEdge2._Y_| |call__main_.call_PosEdge2.flby| |call__main_.call_cc_allowed.call_MoreThanOneSec._Y_| |call__main_.call_cc_allowed.call_MoreThanOneSec.flby| |call__main_.call_cc_allowed.call_MoreThanTwoSec._Y_| |call__main_.call_cc_allowed.call_MoreThanTwoSec.flby| |call__main_.call_cc_allowed.call_MoreThanTwoSec.flby2| |call__main_.call_cc_allowed.ccall| |call__main_.call_one_button_accept.call_AtLeastOnceSince.XsinceY| |call__main_.call_one_button_accept.call_AtLeastOnceSince.flby| |call__main_.call_one_button_accept.call_AtLeastOnceSince.ite_keyword| |call__main_.call_one_button_accept.call_PosEdge._Y_| |call__main_.call_one_button_accept.call_PosEdge.flby| |call__main_.call_one_button_accept.call_one_button.ob| |call__main_.call_one_button_accept.call_prev_no_button.flby| |call__main_.call_one_button_accept.call_prev_no_button.pnb| |call__main_.call_one_button_accept.ite_keyword| |call__main_.call_one_button_accept.ite_keyword2| |call__main_.call_one_button_accept.ob| |call__main_.call_one_button_accept.oba| |call__main_.call_one_button_accept.pnb| |call__main_.cca| |call__main_.ccall| |call__main_.ccont| |call__main_.flby| |call__main_.flby2| |call__main_.ite_keyword| |call__main_.ite_keyword2| |call__main_.ite_keyword3| |call__main_.ite_keyword4| |call__main_.param| |cca| |ccont| |env| |flby| |ite_keyword| |param_accok| |param_battok| |param_bpa| |param_cccanc| |param_ccd| |param_cconoff| |param_ccr| |param_ccsetd| |param_ccseti| |param_gearok| |param_igsw| |param_qfok| |param_sdok| |param_vs|)))
(rule (=> (and (state |_OK_| |call_PosEdge._Y_| |call_PosEdge.flby| |call_PosEdge2._Y_| |call_PosEdge2.flby| |call_PosEdge3._Y_| |call_PosEdge3.flby| |call_PosEdge4._Y_| |call_PosEdge4.flby| |call__main_.call_Edge._Y_| |call__main_.call_Edge.flby| |call__main_.call_PosEdge._Y_| |call__main_.call_PosEdge.flby| |call__main_.call_PosEdge2._Y_| |call__main_.call_PosEdge2.flby| |call__main_.call_cc_allowed.call_MoreThanOneSec._Y_| |call__main_.call_cc_allowed.call_MoreThanOneSec.flby| |call__main_.call_cc_allowed.call_MoreThanTwoSec._Y_| |call__main_.call_cc_allowed.call_MoreThanTwoSec.flby| |call__main_.call_cc_allowed.call_MoreThanTwoSec.flby2| |call__main_.call_cc_allowed.ccall| |call__main_.call_one_button_accept.call_AtLeastOnceSince.XsinceY| |call__main_.call_one_button_accept.call_AtLeastOnceSince.flby| |call__main_.call_one_button_accept.call_AtLeastOnceSince.ite_keyword| |call__main_.call_one_button_accept.call_PosEdge._Y_| |call__main_.call_one_button_accept.call_PosEdge.flby| |call__main_.call_one_button_accept.call_one_button.ob| |call__main_.call_one_button_accept.call_prev_no_button.flby| |call__main_.call_one_button_accept.call_prev_no_button.pnb| |call__main_.call_one_button_accept.ite_keyword| |call__main_.call_one_button_accept.ite_keyword2| |call__main_.call_one_button_accept.ob| |call__main_.call_one_button_accept.oba| |call__main_.call_one_button_accept.pnb| |call__main_.cca| |call__main_.ccall| |call__main_.ccont| |call__main_.flby| |call__main_.flby2| |call__main_.ite_keyword| |call__main_.ite_keyword2| |call__main_.ite_keyword3| |call__main_.ite_keyword4| |call__main_.param| |cca| |ccont| |env| |flby| |ite_keyword| |param_accok| |param_battok| |param_bpa| |param_cccanc| |param_ccd| |param_cconoff| |param_ccr| |param_ccsetd| |param_ccseti| |param_gearok| |param_igsw| |param_qfok| |param_sdok| |param_vs|) .trans) (state |_OK_.next| |call_PosEdge._Y_.next| |call_PosEdge.flby.next| |call_PosEdge2._Y_.next| |call_PosEdge2.flby.next| |call_PosEdge3._Y_.next| |call_PosEdge3.flby.next| |call_PosEdge4._Y_.next| |call_PosEdge4.flby.next| |call__main_.call_Edge._Y_.next| |call__main_.call_Edge.flby.next| |call__main_.call_PosEdge._Y_.next| |call__main_.call_PosEdge.flby.next| |call__main_.call_PosEdge2._Y_.next| |call__main_.call_PosEdge2.flby.next| |call__main_.call_cc_allowed.call_MoreThanOneSec._Y_.next| |call__main_.call_cc_allowed.call_MoreThanOneSec.flby.next| |call__main_.call_cc_allowed.call_MoreThanTwoSec._Y_.next| |call__main_.call_cc_allowed.call_MoreThanTwoSec.flby.next| |call__main_.call_cc_allowed.call_MoreThanTwoSec.flby2.next| |call__main_.call_cc_allowed.ccall.next| |call__main_.call_one_button_accept.call_AtLeastOnceSince.XsinceY.next| |call__main_.call_one_button_accept.call_AtLeastOnceSince.flby.next| |call__main_.call_one_button_accept.call_AtLeastOnceSince.ite_keyword.next| |call__main_.call_one_button_accept.call_PosEdge._Y_.next| |call__main_.call_one_button_accept.call_PosEdge.flby.next| |call__main_.call_one_button_accept.call_one_button.ob.next| |call__main_.call_one_button_accept.call_prev_no_button.flby.next| |call__main_.call_one_button_accept.call_prev_no_button.pnb.next| |call__main_.call_one_button_accept.ite_keyword.next| |call__main_.call_one_button_accept.ite_keyword2.next| |call__main_.call_one_button_accept.ob.next| |call__main_.call_one_button_accept.oba.next| |call__main_.call_one_button_accept.pnb.next| |call__main_.cca.next| |call__main_.ccall.next| |call__main_.ccont.next| |call__main_.flby.next| |call__main_.flby2.next| |call__main_.ite_keyword.next| |call__main_.ite_keyword2.next| |call__main_.ite_keyword3.next| |call__main_.ite_keyword4.next| |call__main_.param.next| |cca.next| |ccont.next| |env.next| |flby.next| |ite_keyword.next| |param_accok.next| |param_battok.next| |param_bpa.next| |param_cccanc.next| |param_ccd.next| |param_cconoff.next| |param_ccr.next| |param_ccsetd.next| |param_ccseti.next| |param_gearok.next| |param_igsw.next| |param_qfok.next| |param_sdok.next| |param_vs.next|)))
(declare-rel benchmark_query ())
(rule (=> (and (state |_OK_| |call_PosEdge._Y_| |call_PosEdge.flby| |call_PosEdge2._Y_| |call_PosEdge2.flby| |call_PosEdge3._Y_| |call_PosEdge3.flby| |call_PosEdge4._Y_| |call_PosEdge4.flby| |call__main_.call_Edge._Y_| |call__main_.call_Edge.flby| |call__main_.call_PosEdge._Y_| |call__main_.call_PosEdge.flby| |call__main_.call_PosEdge2._Y_| |call__main_.call_PosEdge2.flby| |call__main_.call_cc_allowed.call_MoreThanOneSec._Y_| |call__main_.call_cc_allowed.call_MoreThanOneSec.flby| |call__main_.call_cc_allowed.call_MoreThanTwoSec._Y_| |call__main_.call_cc_allowed.call_MoreThanTwoSec.flby| |call__main_.call_cc_allowed.call_MoreThanTwoSec.flby2| |call__main_.call_cc_allowed.ccall| |call__main_.call_one_button_accept.call_AtLeastOnceSince.XsinceY| |call__main_.call_one_button_accept.call_AtLeastOnceSince.flby| |call__main_.call_one_button_accept.call_AtLeastOnceSince.ite_keyword| |call__main_.call_one_button_accept.call_PosEdge._Y_| |call__main_.call_one_button_accept.call_PosEdge.flby| |call__main_.call_one_button_accept.call_one_button.ob| |call__main_.call_one_button_accept.call_prev_no_button.flby| |call__main_.call_one_button_accept.call_prev_no_button.pnb| |call__main_.call_one_button_accept.ite_keyword| |call__main_.call_one_button_accept.ite_keyword2| |call__main_.call_one_button_accept.ob| |call__main_.call_one_button_accept.oba| |call__main_.call_one_button_accept.pnb| |call__main_.cca| |call__main_.ccall| |call__main_.ccont| |call__main_.flby| |call__main_.flby2| |call__main_.ite_keyword| |call__main_.ite_keyword2| |call__main_.ite_keyword3| |call__main_.ite_keyword4| |call__main_.param| |cca| |ccont| |env| |flby| |ite_keyword| |param_accok| |param_battok| |param_bpa| |param_cccanc| |param_ccd| |param_cconoff| |param_ccr| |param_ccsetd| |param_ccseti| |param_gearok| |param_igsw| |param_qfok| |param_sdok| |param_vs|) (not .property)) benchmark_query))
(query benchmark_query)
